study/exp-portion-fine-grain-4v100/run-logs-backup-12-06/samgraph_cache_graphsage_kKHop2_papers100M-undir_coll_cache_asymm_link_2_cache_rate_001_batch_size_8000_concurrent_impl_MPS.log
config:eval_tsp="2022-12-06 14:42:27"
config:arch=arch5
config:num_train_worker=3
config:num_sample_worker=1
config:sample_type=khop2
config:root_path=/nvme/graph-learning-copy/samgraph/
config:dataset=papers100M-undir
config:pipeline=False
config:cache_policy=coll_cache_asymm_link
config:cache_percentage=0.01
config:num_epoch=4
config:batch_size=8000
config:num_hidden=256
config:max_sampling_jobs=1
config:max_copying_jobs=1
config:barriered_epoch=1
config:presample_epoch=2
config:omp_thread_num=13
config:unsupervised=False
config:amp=True
config:rolling=0
config:fanout=[25, 10]
config:lr=0.003
config:dropout=0.5
config:single_gpu=False
config:max_num_step=100000
config:validate_configs=False
config:report_acc=0
config:dataset_path=/nvme/graph-learning-copy/samgraph/papers100M-undir
config:torch_thread_num=13
config:train_workers=['cuda:0', 'cuda:1', 'cuda:2']
config:sample_workers=['cuda:3']
config:num_fanout=2
config:num_layer=2
config:_run_mode=RunMode.FGNN
config:_log_level=warn
config:_profile_level=3
config:_empty_feat=0
config:_arch=5
config:_sample_type=5
config:_cache_policy=13
test_result:init:input_scale_factor=1.1
0 :  {link #0 : 1}, {link #1 : 2},
1 :  {link #0 : 2}, {link #1 : 0},
2 :  {link #0 : 0}, {link #1 : 1},
0 :  {link #0 : 1}, {link #1 : 2},
1 :  {link #0 : 2}, {link #1 : 0},
2 :  {link #0 : 0}, {link #1 : 1},
0 :  {link #0 : 1}, {link #1 : 2},
1 :  {link #0 : 2}, {link #1 : 0},
2 :  {link #0 : 0}, {link #1 : 1},
Set parameter WLSAccessID
Set parameter WLSSecret
Set parameter LicenseID
Set parameter TimeLimit to value 200
Set parameter MIPGap to value 0.05
Set parameter GomoryPasses to value 0
Set parameter Aggregate to value 0
Set parameter LogFile to value "cppsolver.log"
Set parameter Threads to value 26
Academic license - for non-commercial use only - registered to xiaoniu.sxn@sjtu.edu.cn
Gurobi Optimizer version 9.5.1 build v9.5.1rc2 (linux64)
Thread count: 40 physical cores, 80 logical processors, using up to 26 threads
Academic license - for non-commercial use only - registered to xiaoniu.sxn@sjtu.edu.cn
Optimize a model with 21372 rows, 10174 columns and 64086 nonzeros
Model fingerprint: 0x3c06e36d
Variable types: 4 continuous, 10170 integer (10170 binary)
Coefficient statistics:
  Matrix range     [2e-04, 4e+02]
  Objective range  [1e+00, 1e+00]
  Bounds range     [1e+00, 1e+00]
  RHS range        [1e+00, 2e+02]
Found heuristic solution: objective 2.000000e+09
Presolve removed 12206 rows and 0 columns
Presolve time: 0.17s
Presolved: 9166 rows, 10174 columns, 37642 nonzeros
Found heuristic solution: objective 9074.5060591
Variable types: 4 continuous, 10170 integer (10170 binary)

Root relaxation: objective 2.490322e+03, 7544 iterations, 0.17 seconds (0.06 work units)

    Nodes    |    Current Node    |     Objective Bounds      |     Work
 Expl Unexpl |  Obj  Depth IntInf | Incumbent    BestBd   Gap | It/Node Time

     0     0 2490.32232    0   13 9074.50606 2490.32232  72.6%     -    0s
H    0     0                    2500.0400659 2490.32232  0.39%     -    1s

Explored 1 nodes (10624 simplex iterations) in 1.30 seconds (0.43 work units)
Thread count was 26 (of 80 available processors)

Solution count 3: 2500.04 9074.51 2e+09 

Optimal solution found (tolerance 5.00e-02)
Best objective 2.500040065882e+03, best bound 2.490322316428e+03, gap 0.3887%
coll_cache:optimal_local_rate=0.235093,0.175648,0.332003,
coll_cache:optimal_remote_rate=0.507651,0.567096,0.41074,
coll_cache:optimal_cpu_rate=0.257256,0.257256,0.257256,
z=2500.04
test_result:init:feat_nbytes=56862697472
test_result:init:cache_nbytes=573641728
test_result:init:feat_nbytes=56862697472
test_result:init:cache_nbytes=574307840
test_result:init:feat_nbytes=56862697472
test_result:init:cache_nbytes=573481472
0 :  {link #0 : 1}, {link #1 : 2},
1 :  {link #0 : 2}, {link #1 : 0},
2 :  {link #0 : 0}, {link #1 : 1},
0 :  {link #0 : 1}, {link #1 : 2},
1 :  {link #0 : 2}, {link #1 : 0},
2 :  {link #0 : 0}, {link #1 : 1},
0 :  {link #0 : 1}, {link #1 : 2},
1 :  {link #0 : 2}, {link #1 : 0},
2 :  {link #0 : 0}, {link #1 : 1},
Set parameter WLSAccessID
Set parameter WLSSecret
Set parameter LicenseID
Set parameter TimeLimit to value 200
Set parameter MIPGap to value 0.05
Set parameter GomoryPasses to value 0
Set parameter Aggregate to value 0
Set parameter LogFile to value "cppsolver.log"
Set parameter Threads to value 26
Academic license - for non-commercial use only - registered to xiaoniu.sxn@sjtu.edu.cn
Gurobi Optimizer version 9.5.1 build v9.5.1rc2 (linux64)
Thread count: 40 physical cores, 80 logical processors, using up to 26 threads
Academic license - for non-commercial use only - registered to xiaoniu.sxn@sjtu.edu.cn
Optimize a model with 21372 rows, 10174 columns and 64086 nonzeros
Model fingerprint: 0x58e6b56a
Variable types: 4 continuous, 10170 integer (10170 binary)
Coefficient statistics:
  Matrix range     [2e-04, 4e+02]
  Objective range  [1e+00, 1e+00]
  Bounds range     [1e+00, 1e+00]
  RHS range        [1e+00, 2e+02]
Found heuristic solution: objective 2.000000e+09
Presolve removed 12206 rows and 0 columns
Presolve time: 0.17s
Presolved: 9166 rows, 10174 columns, 37642 nonzeros
Found heuristic solution: objective 9057.4542093
Variable types: 4 continuous, 10170 integer (10170 binary)

Root relaxation: objective 2.490324e+03, 6993 iterations, 0.32 seconds (0.15 work units)

    Nodes    |    Current Node    |     Objective Bounds      |     Work
 Expl Unexpl |  Obj  Depth IntInf | Incumbent    BestBd   Gap | It/Node Time

     0     0 2490.32394    0   13 9057.45421 2490.32394  72.5%     -    0s
H    0     0                    2500.0429080 2490.32394  0.39%     -    1s

Explored 1 nodes (9550 simplex iterations) in 1.16 seconds (0.38 work units)
Thread count was 26 (of 80 available processors)

Solution count 3: 2500.04 9057.45 2e+09 

Optimal solution found (tolerance 5.00e-02)
Best objective 2.500042907993e+03, best bound 2.490323942588e+03, gap 0.3888%
coll_cache:optimal_local_rate=0.276032,0.300931,0.165781,
coll_cache:optimal_remote_rate=0.466712,0.441812,0.576963,
coll_cache:optimal_cpu_rate=0.257256,0.257256,0.257256,
z=2500.04
test_result:init:cache_nbytes=0
test_result:init:cache_nbytes=0
test_result:init:cache_nbytes=0
[Train  Worker 2/3] Started with PID 996075(Tesla V100-SXM2-16GB)
[Train  Worker 2] run train for 4 epochs with 153 steps
[Train  Worker 2] Avg Epoch Time 1.2501 | Train Total Time(Profiler) 0.4384 | Copy Time 0.8057
[Train  Worker 1/3] Started with PID 996073(Tesla V100-SXM2-16GB)
[Train  Worker 1] run train for 4 epochs with 153 steps
[Train  Worker 1] Avg Epoch Time 1.2499 | Train Total Time(Profiler) 0.4504 | Copy Time 0.7936
[Train  Worker 0/3] Started with PID 996071(Tesla V100-SXM2-16GB)
[Train  Worker 0] run train for 4 epochs with 153 steps
Epoch 00000 | Epoch Time 3.3964 | Total Train Time(Profiler) 2.5670 | Copy Time 0.8173
Epoch 00001 | Epoch Time 1.2764 | Total Train Time(Profiler) 0.4689 | Copy Time 0.7992
Epoch 00002 | Epoch Time 1.2393 | Total Train Time(Profiler) 0.4357 | Copy Time 0.7973
Epoch 00003 | Epoch Time 1.2343 | Total Train Time(Profiler) 0.4327 | Copy Time 0.7952
[Train  Worker 0] Avg Epoch Time 1.2500 | Train Total Time(Profiler) 0.4458 | Copy Time 0.7972
    [Step(average) Profiler Level 1 E3 S152]
        L1  sample           0.005605 | send           0.001403
        L1  recv             0.000000 | copy           0.000000 | convert time 0.000000 | train  0.000000
        L1  feature nbytes 0.00 Bytes | label nbytes 0.00 Bytes
        L1  id nbytes      0.00 Bytes | graph nbytes 0.00 Bytes
        L1  miss nbytes    0.00 Bytes | remote nbytes 0.00 Bytes
        L1  num nodes         1100857 | num samples     1712963
    [Step(average) Profiler Level 2 E3 S152]
        L2  shuffle     0.000265 | core sample  0.002065 | id remap        0.003176
        L2  graph copy  0.000000 | id copy      0.000000 | cache feat copy 0.000000
        L2  last layer sample time 0.000317 | size 72448.522876
    [Step(average) Profiler Level 3 E3 S152]
        L3  khop sample coo  0.001743 | khop sort coo      0.000000 | khop count edge     0.000038 | khop compact edge 0.000246
        L3  walk sample coo  0.000000 | walk topk total    0.000000 | walk topk step1     0.000000 | walk topk step2   0.000000
        L3  walk topk step3  0.000000 | walk topk step4    0.000000 | walk topk step5     0.000000
        L3  walk topk step6  0.000000 | walk topk step7    0.000000
        L3  remap unique     0.000000 | remap populate     0.002642 | remap mapnode       0.000000 | remap mapedge     0.000534
        L3  cache get_index  0.000000 | cache copy_index   0.000000 | cache extract_miss  0.000000
        L3  cache copy_miss  0.000000 | cache combine_miss 0.000000 | cache combine cache 0.000000 | cache combine remote 0.000000
        L3  label extract  0.000000
    [Init Profiler Level 1]
        L1  init     5.0837 | sampler init    19.9476 | trainer init 0.0000
    [Init Profiler Level 2]
        L2  load ds         7.9868 | init queue          11.5149
        L2  presample       3.7226 | build interal ds     1.8046
        L2  build cache     0.0000
    [Init Profiler Level 3]
        L3  load dataset: mmap     5.0799 | copy         2.9068
        L3  dist queue: alloc      0.0017 | pin         11.5132 | push     0.0000
        L3  presample: init        0.2962
        L3  presample: sample      1.7039 | copy         0.1069
        L3  presample: count       0.9714 | sort         0.2589
        L3  presample: reset       0.0009 | get rank     0.0440
        L3  internal: cuda ctx     1.5531 | cuda stream     0.2470
[Sample Worker 0/1] Started with PID 996070(Tesla V100-SXM2-16GB)
[Sample Worker 0] run sample for 4 epochs with 153 steps
[Sample Worker 0] Avg Sample Total Time 1.0737 | Sampler Total Time(Profiler) 1.0722
test_result:sample_time=0.8575
test_result:get_cache_miss_index_time=0.0000
test_result:enqueue_samples_time=0.2146
test_result:epoch_time:sample_total=1.0737
[CUDA] cuda0: usage: 6.55 GB
[SAM] cuda0 data alloc        : 0.00 Bytes
[SAM] cuda0 workspace         : 1.23 GB
[SAM] cuda0 workspace reserve : 621.32 MB
[SAM] cuda0 total             : 1.23 GB
    [Step(average) Profiler Level 1 E3 S152]
        L1  sample           0.000000 | send           0.000000
        L1  recv             0.001598 | copy           0.015664 | convert time 0.000475 | train  0.008249
        L1  feature nbytes  537.53 MB | label nbytes   62.50 KB
        L1  id nbytes      0.00 Bytes | graph nbytes 0.00 Bytes
        L1  miss nbytes     140.01 MB | remote nbytes  265.01 MB
        L1  num nodes               0 | num samples           0
    [Step(average) Profiler Level 2 E3 S152]
        L2  shuffle     0.000000 | core sample  0.000000 | id remap        0.000000
        L2  graph copy  0.000004 | id copy      0.000000 | cache feat copy 0.014062
        L2  last layer sample time 0.000000 | size 0.000000
    [Step(average) Profiler Level 3 E3 S152]
        L3  khop sample coo  0.000000 | khop sort coo      0.000000 | khop count edge     0.000000 | khop compact edge 0.000000
        L3  walk sample coo  0.000000 | walk topk total    0.000000 | walk topk step1     0.000000 | walk topk step2   0.000000
        L3  walk topk step3  0.000000 | walk topk step4    0.000000 | walk topk step5     0.000000
        L3  walk topk step6  0.000000 | walk topk step7    0.000000
        L3  remap unique     0.000000 | remap populate     0.000000 | remap mapnode       0.000000 | remap mapedge     0.000000
        L3  cache get_index  0.000714 | cache copy_index   0.000000 | cache extract_miss  0.000000
        L3  cache copy_miss  0.000000 | cache combine_miss 0.013136 | cache combine cache 0.000448 | cache combine remote 0.003992
        L3  label extract  0.000196
    [Init Profiler Level 1]
        L1  init     5.0837 | sampler init     0.0000 | trainer init 87.7203
    [Init Profiler Level 2]
        L2  load ds         5.0799 | init queue          11.5120
        L2  presample       0.0000 | build interal ds     1.4761
        L2  build cache    74.7232
    [Init Profiler Level 3]
        L3  load dataset: mmap     5.0799 | copy         0.0000
        L3  dist queue: alloc      0.0017 | pin         11.5104 | push     0.0000
        L3  presample: init        0.0000
        L3  presample: sample      0.0000 | copy         0.0000
        L3  presample: count       0.0000 | sort         0.0000
        L3  presample: reset       0.0000 | get rank     0.0000
        L3  internal: cuda ctx     1.4761 | cuda stream     0.0000
|===========================================================================|
|                  PyTorch CUDA memory summary, device ID 0                 |
|---------------------------------------------------------------------------|
|            CUDA OOMs: 0            |        cudaMalloc retries: 0         |
|===========================================================================|
|        Metric         | Cur Usage  | Peak Usage | Tot Alloc  | Tot Freed  |
|---------------------------------------------------------------------------|
| Allocated memory      |   22840 KB |  402733 KB |  284865 MB |  284843 MB |
|       from large pool |   18168 KB |  399350 KB |  282752 MB |  282735 MB |
|       from small pool |    4672 KB |    7135 KB |    2112 MB |    2108 MB |
|---------------------------------------------------------------------------|
| Active memory         |   22840 KB |  402733 KB |  284865 MB |  284843 MB |
|       from large pool |   18168 KB |  399350 KB |  282752 MB |  282735 MB |
|       from small pool |    4672 KB |    7135 KB |    2112 MB |    2108 MB |
|---------------------------------------------------------------------------|
| GPU reserved memory   |  579584 KB |  579584 KB |  579584 KB |       0 B  |
|       from large pool |  571392 KB |  571392 KB |  571392 KB |       0 B  |
|       from small pool |    8192 KB |    8192 KB |    8192 KB |       0 B  |
|---------------------------------------------------------------------------|
| Non-releasable memory |   24263 KB |  370859 KB |  332534 MB |  332510 MB |
|       from large pool |   22792 KB |  369039 KB |  330119 MB |  330096 MB |
|       from small pool |    1471 KB |    3829 KB |    2415 MB |    2413 MB |
|---------------------------------------------------------------------------|
| Allocations           |      38    |      51    |   22680    |   22642    |
|       from large pool |       3    |      14    |    8976    |    8973    |
|       from small pool |      35    |      39    |   13704    |   13669    |
|---------------------------------------------------------------------------|
| Active allocs         |      39    |      51    |   22680    |   22641    |
|       from large pool |       3    |      14    |    8976    |    8973    |
|       from small pool |      36    |      39    |   13704    |   13668    |
|---------------------------------------------------------------------------|
| GPU reserved segments |      13    |      13    |      13    |       0    |
|       from large pool |       9    |       9    |       9    |       0    |
|       from small pool |       4    |       4    |       4    |       0    |
|---------------------------------------------------------------------------|
| Non-releasable allocs |      12    |      24    |   10537    |   10525    |
|       from large pool |       4    |      12    |    5206    |    5202    |
|       from small pool |       8    |      15    |    5331    |    5323    |
|---------------------------------------------------------------------------|
| Oversize allocations  |       0    |       0    |       0    |       0    |
|---------------------------------------------------------------------------|
| Oversize GPU segments |       0    |       0    |       0    |       0    |
|===========================================================================|

test_result:epoch_time:copy_time=0.7972
test_result:convert_time=0.0276
test_result:train_time=0.4182
test_result:epoch_time:train_total=0.4458
test_result:cache_percentage=0.0100
test_result:cache_hit_rate=1.0000
test_result:run_time=11.4806
